proof_res/hipspec/synduce-constraints-memo-tree_size.out
File processed.
Depth 1: 15 terms, 4 tests, 40 evaluations, 15 classes, 0 raw equations.
Depth 2: 332 terms, 100 tests, 11504 evaluations, 261 classes, 71 raw equations.
Depth 3: 17666 terms, 6400 tests, 7035524 evaluations, 11566 classes, 6100 raw equations.
QuickSpec done, 11566 classes, 6100 equations.
Failed to prove optimize {- main inp0 == mainNew inp0 -}
[034mProved and var0_0 var0_1 == and var0_1 var0_0 without induction[0m using Z3
[034mProved and var0_0 var0_0 == var0_0 without induction[0m using Z3
[034mProved and var0_0 (and var0_1 var0_2) == and var0_1 (and var0_0 var0_2) without induction[0m using Z3
[034mProved ite2 var0_0 Zero == Zero without induction[0m using Z3
[034mProved ite2 var0_0 (ite2 var0_1 var0_2) == ite2 var0_1 (ite2 var0_0 var0_2) without induction[0m using Z3
[034mProved ite2 var0_0 (ite2 var0_0 var0_1) == ite2 var0_0 var0_1 without induction[0m using Z3
[034mProved ite2 (and var0_0 var0_1) var0_2 == ite2 var0_0 (ite2 var0_1 var0_2) without induction[0m using Z3
[034m[1mProved nateq var0_0 var0_1 == nateq var0_1 var0_0 by induction on var0_0[0m using Z3
[034m[1mProved nateq var0_0 var0_0 == True by induction on var0_0[0m using Z3
[034m[1mProved nateq var0_0 (Succ var0_0) == False by induction on var0_0[0m using Z3
[034m[1mProved ite2 (nateq var0_0 var0_1) var0_1 == ite2 (nateq var0_0 var0_1) var0_0 by induction on var0_1[0m using Z3
[034mProved nateq (ite2 var0_0 var0_1) (Succ var0_1) == False without induction[0m using Z3
[034mProved ite2 (nateq var0_0 var0_1) (Succ var0_1) == ite2 (nateq var0_0 var0_1) (Succ var0_0) without induction[0m using Z3
[034mProved and (nateq var0_0 var0_1) (nateq var0_1 var0_2) == and (nateq var0_0 var0_1) (nateq var0_0 var0_2) without induction[0m using Z3
Unknown result from Z3 on and (and var0_0 var0_1) (nateq var0_2 Zero) == and var0_1 (nateq var0_2 Zero) coords: 0,1 1/4, exit code: ExitSuccess
    stdout:
        sat

Unknown result from Z3 on and (and var0_0 var0_1) (nateq var0_2 Zero) == and var0_1 (nateq var0_2 Zero) coords: 1,2 2/4, exit code: ExitSuccess
    stdout:
        sat

Unknown result from Z3 on and (and var0_0 var0_1) (nateq var0_2 Zero) == and var0_1 (nateq var0_2 Zero) coords: 0,2 0/4, exit code: ExitSuccess
    stdout:
        sat

Unknown result from Z3 on and (and var0_0 var0_1) (nateq var0_2 Zero) == and var0_1 (nateq var0_2 Zero) coords: 0 0/2, exit code: ExitSuccess
    stdout:
        sat

Unknown result from Z3 on and (and var0_0 var0_1) (nateq var0_2 Zero) == and var0_1 (nateq var0_2 Zero) coords: 1 1/2, exit code: ExitSuccess
    stdout:
        sat

Unknown result from Z3 on and (and var0_0 var0_1) (nateq var0_2 Zero) == and var0_1 (nateq var0_2 Zero) coords: 2 0/2, exit code: ExitSuccess
    stdout:
        sat

Unknown result from Z3 on and (and var0_0 var0_1) (nateq var0_2 Zero) == and var0_1 (nateq var0_2 Zero) coords:  0/1, exit code: ExitSuccess
    stdout:
        sat

Failed to prove and (and var0_0 var0_1) (nateq var0_2 Zero) == and var0_1 (nateq var0_2 Zero)
Unknown result from Z3 on and (and var0_0 var0_1) (nateq var0_2 Zero) == and var0_0 (nateq var0_2 Zero) coords: 0,1 1/4, exit code: ExitSuccess
    stdout:
        sat

Unknown result from Z3 on and (and var0_0 var0_1) (nateq var0_2 Zero) == and var0_0 (nateq var0_2 Zero) coords: 1,2 2/4, exit code: ExitSuccess
    stdout:
        sat

Unknown result from Z3 on and (and var0_0 var0_1) (nateq var0_2 Zero) == and var0_0 (nateq var0_2 Zero) coords: 0,2 0/4, exit code: ExitSuccess
    stdout:
        sat

Unknown result from Z3 on and (and var0_0 var0_1) (nateq var0_2 Zero) == and var0_0 (nateq var0_2 Zero) coords: 0 0/2, exit code: ExitSuccess
    stdout:
        sat

Unknown result from Z3 on and (and var0_0 var0_1) (nateq var0_2 Zero) == and var0_0 (nateq var0_2 Zero) coords: 1 1/2, exit code: ExitSuccess
    stdout:
        sat

Unknown result from Z3 on and (and var0_0 var0_1) (nateq var0_2 Zero) == and var0_0 (nateq var0_2 Zero) coords: 2 0/2, exit code: ExitSuccess
    stdout:
        sat

Unknown result from Z3 on and (and var0_0 var0_1) (nateq var0_2 Zero) == and var0_0 (nateq var0_2 Zero) coords:  0/1, exit code: ExitSuccess
    stdout:
        sat

Failed to prove and (and var0_0 var0_1) (nateq var0_2 Zero) == and var0_0 (nateq var0_2 Zero)
Unknown result from Z3 on and (nateq var0_0 Zero) (and var0_1 var0_2) == and var0_2 (nateq var0_0 Zero) coords: 0,1 1/4, exit code: ExitSuccess
    stdout:
        sat

Unknown result from Z3 on and (nateq var0_0 Zero) (and var0_1 var0_2) == and var0_2 (nateq var0_0 Zero) coords: 1,2 2/4, exit code: ExitSuccess
    stdout:
        sat

Unknown result from Z3 on and (nateq var0_0 Zero) (and var0_1 var0_2) == and var0_2 (nateq var0_0 Zero) coords: 0,2 0/4, exit code: ExitSuccess
    stdout:
        sat

Unknown result from Z3 on and (nateq var0_0 Zero) (and var0_1 var0_2) == and var0_2 (nateq var0_0 Zero) coords: 0 0/2, exit code: ExitSuccess
    stdout:
        sat

Unknown result from Z3 on and (nateq var0_0 Zero) (and var0_1 var0_2) == and var0_2 (nateq var0_0 Zero) coords: 1 1/2, exit code: ExitSuccess
    stdout:
        sat

Unknown result from Z3 on and (nateq var0_0 Zero) (and var0_1 var0_2) == and var0_2 (nateq var0_0 Zero) coords: 2 0/2, exit code: ExitSuccess
    stdout:
        sat

Unknown result from Z3 on and (nateq var0_0 Zero) (and var0_1 var0_2) == and var0_2 (nateq var0_0 Zero) coords:  0/1, exit code: ExitSuccess
    stdout:
        sat

Failed to prove and (nateq var0_0 Zero) (and var0_1 var0_2) == and var0_2 (nateq var0_0 Zero)
Unknown result from Z3 on and (nateq var0_0 Zero) (and var0_1 var0_2) == and var0_1 (nateq var0_0 Zero) coords: 0,1 1/4, exit code: ExitSuccess
    stdout:
        sat

Unknown result from Z3 on and (nateq var0_0 Zero) (and var0_1 var0_2) == and var0_1 (nateq var0_0 Zero) coords: 1,2 2/4, exit code: ExitSuccess
    stdout:
        sat

Unknown result from Z3 on and (nateq var0_0 Zero) (and var0_1 var0_2) == and var0_1 (nateq var0_0 Zero) coords: 0,2 0/4, exit code: ExitSuccess
    stdout:
        sat

Unknown result from Z3 on and (nateq var0_0 Zero) (and var0_1 var0_2) == and var0_1 (nateq var0_0 Zero) coords: 1 1/2, exit code: ExitSuccess
    stdout:
        sat

Unknown result from Z3 on and (nateq var0_0 Zero) (and var0_1 var0_2) == and var0_1 (nateq var0_0 Zero) coords: 0 0/2, exit code: ExitSuccess
    stdout:
        sat

Unknown result from Z3 on and (nateq var0_0 Zero) (and var0_1 var0_2) == and var0_1 (nateq var0_0 Zero) coords:  0/1, exit code: ExitSuccess
    stdout:
        sat

Unknown result from Z3 on and (nateq var0_0 Zero) (and var0_1 var0_2) == and var0_1 (nateq var0_0 Zero) coords: 2 0/2, exit code: ExitSuccess
    stdout:
        sat

Failed to prove and (nateq var0_0 Zero) (and var0_1 var0_2) == and var0_1 (nateq var0_0 Zero)
[034m[1mProved plus var0_0 var0_1 == plus var0_1 var0_0 by induction on var0_1,var0_0[0m using Z3
[034m[1mProved plus var0_0 (plus var0_1 var0_2) == plus var0_1 (plus var0_0 var0_2) by induction on var0_2[0m using Z3
[034m[1mProved nateq var0_0 (plus var0_0 var0_1) == nateq var0_1 Zero by induction on var0_0[0m using Z3
[034m[1mProved nateq (plus var0_0 var0_1) (plus var0_0 var0_2) == nateq var0_1 var0_2 by induction on var0_0[0m using Z3
[034m[1mProved nateq (plus var0_0 var0_1) (Succ var0_1) == nateq (plus var0_0 var0_2) (Succ var0_2) by induction on var0_1[0m using Z3
[034m[1mProved nateq (plus var0_0 var0_0) (plus var0_1 var0_1) == nateq var0_0 var0_1 by induction on var0_0,var0_1[0m using Z3
[034mProved nateq (plus var0_0 var0_0) (Succ Zero) == False without induction[0m using Z3
[034mProved and (nateq var0_0 var0_1) (nateq var0_0 Zero) == nateq Zero (plus var0_0 var0_1) without induction[0m using Z3
[034mProved tf2 (Mnode var0_0 var0_1 var0_2 var0_0a) == tf2 (Mnode var0_0 var0_1 var0_0a var0_2) without induction[0m using Z3
[034mProved tf2 (Mnode var0_0 var0_1 var0_2 var0_0a) == tf2 (Mnode var0_0 var0_1a var0_2 var0_0a) without induction[0m using Z3
[034mProved tf2 (Mnode Zero var0_0 var0_1 var0_2) == False without induction[0m using Z3
[034mProved mainNew (Mnode var0_0 var0_1 var0_2 var0_0a) == mainNew (Mnode var0_0 var0_1 var0_0a var0_2) without induction[0m using Z3
[034mProved mainNew (Mnode var0_0 var0_1 var0_2 var0_0a) == mainNew (Mnode var0_0 var0_1a var0_2 var0_0a) without induction[0m using Z3
[034mProved mainNew (Mleaf var0_0) == Succ Zero without induction[0m using Z3
[034mProved mainNew (Mnode Zero var0_0 var0_1 var0_2) == Zero without induction[0m using Z3
Failed to prove nateq (mainNew var0_0) (plus var0_1 var0_1) == nateq var0_1 (mainNew var0_0)
Failed to prove nateq (plus var0_0 var0_0) (mainNew var0_1) == nateq var0_0 (mainNew var0_1)
Failed to prove nateq (mainNew var0_0) (Succ Zero) == tf2 var0_0
Failed to prove nateq (Succ Zero) (mainNew var0_0) == tf2 var0_0
Failed to prove and (tf2 var0_0) (nateq var0_1 Zero) == nateq (Succ var0_1) (mainNew var0_0)
[034mProved plus (ite2 var0_0 var0_1) (ite2 var0_0 var0_2) == ite2 var0_0 (plus var0_1 var0_2) without induction[0m using Z3
[034mProved nateq (ite2 var0_0 var0_1) (plus var0_1 var0_1) == nateq var0_1 Zero without induction[0m using Z3
Failed to prove ite2 (tf2 var0_0) (Succ Zero) == ite2 (tf2 var0_0) (tf0 var0_0)
Failed to prove ite2 (tf2 var0_0) (mainNew var0_1) == ite2 (tf2 var0_1) (mainNew var0_0)
[034mProved ite2 (tf2 var0_0) (tf0 var0_0) == mainNew var0_0 without induction[0m using Z3
Failed to prove ite2 (nateq var0_0 Zero) (mainNew var0_1) == ite2 (nateq var0_2 var0_0) (mainNew var0_1)
Failed to prove and var0_0 (nateq var0_1 Zero) == nateq (plus var0_1 var0_2) (ite2 var0_0 var0_2)
Failed to prove ite2 (and var0_0 var0_1) (mainNew var0_2) == ite2 (nateq var0_0a var0_1a) (mainNew var0_2)
Failed to prove nateq (tf8 var0_0) (plus var0_1 var0_1) == False
