th/synduce-constraints-memo-tree_size.log
13:41:15 [WARN] Collecting statistics
13:41:15 [WARN]  ex is: true
13:41:15 [WARN]  ex is: false
13:41:15 [WARN]  ex is: zero
13:41:15 [WARN]  ex is: (succ zero)
13:41:15 [WARN]  ex is: (succ (succ zero))
13:41:15 [WARN]  ex is: (leaf autovar_Nat_0)
13:41:15 [WARN]  ex is: (node autovar_Nat_1 (leaf autovar_Nat_0) (leaf autovar_Nat_0))
13:41:15 [WARN]  ex is: (node autovar_Nat_2 (node autovar_Nat_1 (leaf autovar_Nat_0) (leaf autovar_Nat_0)) (node autovar_Nat_1 (leaf autovar_Nat_0) (leaf autovar_Nat_0)))
13:41:15 [WARN]  ex is: (mleaf autovar_Nat_0)
13:41:15 [WARN]  ex is: (mnode autovar_Nat_1 autovar_Nat_2 (mleaf autovar_Nat_0) (mleaf autovar_Nat_0))
13:41:15 [WARN]  ex is: (mnode autovar_Nat_3 autovar_Nat_4 (mnode autovar_Nat_1 autovar_Nat_2 (mleaf autovar_Nat_0) (mleaf autovar_Nat_0)) (mnode autovar_Nat_1 autovar_Nat_2 (mleaf autovar_Nat_0) (mleaf autovar_Nat_0)))
13:41:15 [WARN] Running exploration without proof mode, but goals were given
13:41:15 [WARN] Proof mode: true
13:41:15 [WARN]  ex is: true
13:41:15 [WARN]  ex is: false
13:41:15 [WARN]  ex is: zero
13:41:15 [WARN]  ex is: (succ zero)
13:41:15 [WARN]  ex is: (succ (succ zero))
13:41:15 [WARN]  ex is: (leaf autovar_Nat_0)
13:41:15 [WARN]  ex is: (node autovar_Nat_1 (leaf autovar_Nat_0) (leaf autovar_Nat_0))
13:41:15 [WARN]  ex is: (node autovar_Nat_2 (node autovar_Nat_1 (leaf autovar_Nat_0) (leaf autovar_Nat_0)) (node autovar_Nat_1 (leaf autovar_Nat_0) (leaf autovar_Nat_0)))
13:41:15 [WARN]  ex is: (mleaf autovar_Nat_0)
13:41:15 [WARN]  ex is: (mnode autovar_Nat_1 autovar_Nat_2 (mleaf autovar_Nat_0) (mleaf autovar_Nat_0))
13:41:15 [WARN]  ex is: (mnode autovar_Nat_3 autovar_Nat_4 (mnode autovar_Nat_1 autovar_Nat_2 (mleaf autovar_Nat_0) (mleaf autovar_Nat_0)) (mnode autovar_Nat_1 autovar_Nat_2 (mleaf autovar_Nat_0) (mleaf autovar_Nat_0)))
13:41:15 [WARN] Running exploration without proof mode, but goals were given
13:41:15 [WARN] Proof mode: true
13:41:15 [WARN] proved: (tf6 ?ts_ph_TreeMemo_0) => ?ts_ph_TreeMemo_0
13:41:15 [WARN] proved: (and ?ts_ph_Bool_0 ?ts_ph_Bool_1) => (and ?ts_ph_Bool_1 ?ts_ph_Bool_0)
13:41:15 [WARN] proved: (and ?ts_ph_Bool_1 ?ts_ph_Bool_0) => (and ?ts_ph_Bool_0 ?ts_ph_Bool_1)
13:41:15 [WARN] proved: (and ?ts_ph_Bool_0 ?ts_ph_Bool_0) => ?ts_ph_Bool_0
13:41:15 [WARN] proved: (nat_eq zero ?ts_ph_Nat_0) => (nat_eq ?ts_ph_Nat_0 zero)
13:41:15 [WARN] proved: (nat_eq ?ts_ph_Nat_0 zero) => (nat_eq zero ?ts_ph_Nat_0)
13:41:15 [WARN] proved: (plus ?ts_ph_Nat_0 zero) => ?ts_ph_Nat_0
13:41:15 [WARN] proved: (nat_eq ?ts_ph_Nat_0 ?ts_ph_Nat_0) => true
